(set-logic QF_BV)
(declare-fun _substvar_90_ () (_ BitVec 159))
(declare-fun _substvar_246_ () Bool)
(declare-fun _substvar_177_ () (_ BitVec 159))
(declare-fun _substvar_184_ () (_ BitVec 159))
(declare-fun _substvar_122_ () (_ BitVec 159))
(assert (and true true true true true true true true true true true true true true true true true true true true true true true true true true true true true true true true true true true true true true true true true true true true true true true true true true true true true true true true true true true true true true true true true true true true true true true true true true true true true true true true true true true true true true true true true true true true true true true true true true true true true true true true true true true true true true true true true true true true true true true true true true true true true true true true true true true true true true true true true true true true true true true true true true true true true true true true true true true true (= _substvar_122_ (_ bv0 159)) (ite _substvar_246_ (= _substvar_177_ (_ bv0 159)) (= _substvar_177_ (concat (_ bv0 158) (bvxor (_ bv0 1) ((_ extract 127 127) _substvar_122_))))) (= _substvar_184_ (concat ((_ extract 157 0) _substvar_177_) (bvxor ((_ extract 158 158) _substvar_177_) ((_ extract 127 127) _substvar_177_)))) (= _substvar_90_ (concat ((_ extract 157 0) _substvar_184_) (_ bv0 1))) true true true true true true true true true true true true true true true true true true true true true true true true true true true true true true true true true true true true true true true true true true true true true true true true true true true true true true true true true true true true true true true true true true true true true true true true true true true true true true true true true true true true true true true true true true true true true true true true true true true true true true true true true true true true true true true true true true true true true true true true true true true true true true true true true true true true true true true true true true true true true true true true true true true true true true true true true true true true true true true true true true true true true true true true true true (= (or false false false (= _substvar_90_ (_ bv0 159)) false false) false)))
(check-sat)
(exit)
